(set-info :status unknown)
(declare-fun mem0 () (_ BitVec 8))
(declare-fun |ana_MaskedValueIsZero(%Op1, (1 << (width(%Op0) - 1)))| () (_ BitVec 1))
(declare-fun |ana_MaskedValueIsZero(%Op0, (1 << (width(%Op0) - 1)))| () (_ BitVec 1))
(declare-fun %Op1 () (_ BitVec 11))
(declare-fun %Op0 () (_ BitVec 11))
(assert
 (let (($x8531 (= |ana_MaskedValueIsZero(%Op1, (1 << (width(%Op0) - 1)))| (_ bv1 1))))
 (let (($x16261 (= |ana_MaskedValueIsZero(%Op0, (1 << (width(%Op0) - 1)))| (_ bv1 1))))
 (and (=> $x16261 (= (bvand %Op0 (bvshl (_ bv1 11) (bvsub (_ bv11 11) (_ bv1 11)))) (_ bv0 11))) (=> $x8531 (= (bvand %Op1 (bvshl (_ bv1 11) (bvsub (_ bv11 11) (_ bv1 11)))) (_ bv0 11))) $x16261 $x8531 (and (distinct mem0 mem0) true)))))
(check-sat)
